NAME : lc202.591555.tour
COMMENT : Cost = 0_591555
COMMENT : Found by LKH [Keld Helsgaun] Fri Sep 15 17:42:01 2017
TYPE : TOUR
DIMENSION : 105
TOUR_SECTION
1
94
6
76
3
2
100
101
102
98
93
95
96
99
8
4
5
90
92
89
85
87
84
83
86
77
72
71
74
81
80
82
79
78
97
88
91
105
21
23
25
28
31
30
7
33
34
32
103
36
38
39
40
37
35
29
27
24
19
20
17
15
13
16
18
14
26
10
12
11
9
22
104
68
64
63
75
73
62
65
67
70
69
66
50
56
55
54
57
59
61
60
58
41
45
47
46
52
51
53
48
44
43
42
49
-1
EOF
